read_data ${fname}
read_data lammpsIn_N50.dat
  orthogonal box = (-25 -25 -25) to (25 25 25)
  1 by 1 by 1 MPI processor grid
  reading atoms ...
  50 atoms
  scanning bonds ...
  1 = max bonds/atom
  reading bonds ...
  50 bonds
  2 = max # of 1-2 neighbors
  2 = max # of special neighbors

# interaction information
neighbor 10.0 bin
neigh_modify once yes
# neigh_modify every 10 one 10000
# bond_style      harmonic
# bond_coeff 1 350 1.53
bond_style      fene
bond_coeff 1 100.0 1.1 720.0 0.9

# pair_style none
# pair_style lj/cut 10.5
# pair_coeff 1 1 0.112 4.01 10.5
pair_style	lj/cut 0.84185
pair_modify	shift yes
pair_coeff	1 1 6.0 0.75

group spb id 1
1 atoms in group spb

fix	1 all langevin 1.0 1.0 1.0 904297
fix 	2 spb spring tether 1000.0 0.0 0.0 0.0 0.0
# fix 	3 all addforce 0.0 0.0 0.0
fix	4 all nve

# output settings
dump 1 all xyz 100000 dump*.dat
thermo          1000000

# run the simulation
timestep	0.001
run		100000000
Memory usage per processor = 1.43831 Mbytes
Step Temp E_pair E_mol TotEng Press 
       0            0            0    108.79871    108.79871 0.00016978225 
 1000000    1.0112057  0.010454055    109.33478     110.8317  -0.01519937 
 2000000   0.87393246            0    109.20497    110.48965 0.0018743768 
 3000000    1.0081042  0.024743548    109.48801    110.99467 -0.0082659062 
 4000000   0.97713573            0    109.15979    110.59618  0.004444353 
 5000000   0.89349803 0.0030214158    109.24274     110.5592 -0.0039497523 
 6000000    1.0493432 0.0070827206    109.16692    110.71654 0.0023982867 
 7000000     0.898222            0    109.43446    110.75484 -0.0012654995 
 8000000    1.0660723            0    109.44048     111.0076 -0.00070761496 
 9000000    1.0166322            0    109.40742    110.90187 -0.0031836641 
10000000    1.0849387            0    109.55728    111.15214 0.0097288428 
11000000    1.3771751 0.00099326266    109.30682    111.33226 -0.002594041 
12000000    0.8733323  0.036628262    109.21412    110.53455 0.0080176441 
13000000    1.1782243 0.0085183127    109.41457    111.15508  -0.01014217 
14000000    1.0203581            0    109.24716    110.74708 -0.0029067946 
15000000    1.2053941            0    109.14757     110.9195 -0.0010195698 
16000000     1.088708 0.0060392493    109.32784    110.93428  0.002520406 
17000000   0.92663907 6.0704902e-05    109.24633    110.60855 0.0084782914 
18000000   0.90853601  0.053497764    109.49572    110.88476 -0.013557421 
19000000   0.84122547  0.003804673     109.3126      110.553 0.0046401981 
20000000    1.2074842 0.0092659232    109.43769    111.22196 0.0020558255 
21000000    1.3239761  0.002143753    109.25253    111.20092 -0.00065813659 
22000000   0.93374338  0.022202364     109.4855    110.88031 -0.0086394938 
23000000   0.87691567 0.0037088928    109.20264    110.49541 0.0002974054 
24000000    1.0499327            0    109.31514    110.85854 -0.0029369061 
25000000    1.0553796            0     109.3534    110.90481 -0.0078611797 
26000000   0.98932634            0    109.17623    110.63054 0.0042950934 
27000000    1.1586105            0    109.26281    110.96596 -0.00087430078 
28000000    1.1592704            0    109.16348    110.86761  -0.00122063 
29000000   0.89139952  0.065756075     109.4001    110.77622 -0.0042329816 
30000000   0.94986662 0.0062973318    109.31077    110.71337  0.007858454 
31000000    1.0603734            0    109.33835     110.8971 -0.006562916 
32000000    1.2298955            0    109.33747    111.14542 -0.0070906779 
33000000    1.2760182 0.0027141358     109.3078    111.18626 -0.002805603 
34000000    0.8847388  0.021516626    109.31141    110.63349 0.0020373759 
35000000   0.77378239 0.00090355459    109.26342    110.40178 -0.007429498 
36000000   0.98390048            0    109.28318    110.72952 -0.0036527426 
37000000    0.9625636   0.01652581    109.50578    110.93727 -0.0043832898 
38000000     1.023466  0.017945483    109.38926     110.9117 0.00028660903 
39000000   0.89646218  0.005797539    109.26524    110.58884 -0.00074662047 
40000000    1.1669226 0.0011805367    109.29011    111.00666 0.0043204986 
41000000   0.87647046 0.0040582358    109.39352    110.68599 0.0052696141 
42000000   0.82472961            0     109.7116    110.92395   -0.0102416 
43000000   0.86833566  0.015988684    109.28061    110.57305 0.0015976531 
44000000   0.92589897            0       109.43    110.79107 -0.00084812016 
45000000    1.0393309            0    109.28359     110.8114 0.00023724286 
46000000   0.87380979  0.011901521    109.32232    110.61872 -0.0069704662 
47000000   0.95200933   0.01385472    109.23578    110.64909 -0.0018491626 
48000000    1.0273978 1.0259933e-05    109.30726    110.81754 9.3162447e-05 
49000000   0.93027585            0    109.31153    110.67903 0.00035123535 
50000000     1.047557            0    109.31856    110.85847 -0.0054137553 
51000000   0.90085893 0.0084944967    109.46794     110.8007 0.0069177598 
52000000    1.0221418 8.121738e-05    109.30797     110.8106 -0.0079792764 
53000000    1.2604115            0    109.34388    111.19668  0.009198532 
54000000   0.76146765   0.01347716    109.37786     110.5107 0.00088772325 
55000000    1.1401343            0    109.53956    111.21556 0.0025203548 
56000000    1.0087033            0    109.49695    110.97974 -0.015818443 
57000000   0.92705157            0    109.24274     110.6055 0.0055341544 
58000000   0.97171991            0    109.35447    110.78289 0.0063122574 
59000000    1.0867382            0    109.42531    111.02282 -0.011521981 
60000000   0.96658279            0    109.56189    110.98277 0.0051470509 
61000000    0.7995356            0    109.28125    110.45657 -0.0055001839 
62000000    1.0818218  0.062353614    109.29502    110.94765 -0.00066070627 
63000000    1.0292718            0    109.38061    110.89364 0.0056843521 
64000000   0.95025703            0    109.18866    110.58554 0.0016091062 
65000000   0.93006481  0.024344922    109.40101    110.79255 -0.0043324054 
66000000   0.90978092            0    109.20222     110.5396 0.0035582685 
67000000    1.0852713   0.02286562    109.43968    111.05789 -0.00094240347 
68000000    1.0088278 0.0067770459    109.30955    110.79931 -0.0059295157 
69000000    1.0515217            0    109.33767     110.8834  0.001983023 
70000000    1.0846524 0.0033785409    109.20562    110.80344 -0.00098886262 
71000000    1.0880548  0.015978527    109.39459    111.01001 0.0084071217 
72000000    1.0244508            0    109.29224    110.79818 0.0014400936 
73000000   0.92008892            0     109.3708    110.72333 0.0078449711 
74000000    1.2562583            0    109.31157    111.15827 -0.0029910858 
75000000   0.96249309  0.014072006    109.32719    110.75613 -0.00056775643 
76000000    1.1245012            0    109.14882    110.80184 0.0030373497 
77000000   0.95411521  0.027579972    109.23617     110.6663 0.00095529566 
78000000    1.1678539  0.011165902    109.48817    111.21608 0.0026328182 
79000000   0.90402347            0    109.44401    110.77293 -0.0034536747 
80000000   0.95804768  0.044136145     109.5058    110.95827  0.014535632 
81000000    1.0648798 0.0013462361    109.46788     111.0346 7.5020541e-05 
82000000   0.85875058 0.0041131606    109.33762    110.60409 -0.0042220808 
83000000       1.2541 0.0051598521    109.40385    111.25253 -0.0029043591 
84000000    1.1207993            0     109.3857    111.03328  0.003942766 
85000000    0.8650531  0.018711221    109.28379    110.57413 -0.00061580734 
86000000   0.98139916            0    109.45292    110.89558 -0.0013070948 
87000000    1.2588803  0.027797873    109.19328    111.07163 -0.0046790683 
88000000   0.96689064 0.00033635173    109.36894    110.79061 0.0029875858 
89000000    1.2358019  0.035814381    109.33326     111.1857 0.0052480201 
90000000    1.0894984 0.00063840415    109.35953    110.96173 -0.0011172535 
91000000   0.97961202  0.043553693    109.22225    110.70583 0.0038728615 
92000000    1.0529561 0.00098847718    109.50131    111.05014 -0.0024511826 
93000000   0.93464404  0.035237592    109.24253    110.65169 -0.0012745868 
94000000   0.94994944  0.016855725    109.29204    110.70532 -0.010380711 
95000000    1.1005585  0.004221844    109.21915    110.84119 -0.00013158504 
96000000   0.85017749            0    109.28402    110.53378 0.0032614909 
97000000   0.97121255 0.0027950774    109.42319    110.85367  0.003509876 
98000000   0.87469122            0    109.34546    110.63125 -0.00034485757 
99000000    1.1086607            0    109.33357     110.9633 -0.0049740744 
100000000   0.80369157 0.0014290784    109.29216    110.47502 -0.00067748673 
Loop time of 728.934 on 1 procs for 100000000 steps with 50 atoms

Pair  time (%) = 290.983 (39.919)
Bond  time (%) = 114.829 (15.7529)
Neigh time (%) = 0 (0)
Comm  time (%) = 10.6283 (1.45805)
Outpt time (%) = 0.30518 (0.0418667)
Other time (%) = 312.189 (42.8282)

Nlocal:    50 ave 50 max 50 min
Histogram: 1 0 0 0 0 0 0 0 0 0
Nghost:    0 ave 0 max 0 min
Histogram: 1 0 0 0 0 0 0 0 0 0
Neighs:    754 ave 754 max 754 min
Histogram: 1 0 0 0 0 0 0 0 0 0

Total # of neighbors = 754
Ave neighs/atom = 15.08
Ave special neighs/atom = 2
Neighbor list builds = 0
Dangerous builds = 0

print "All done"
All done
